(declare-fun var0 () String)
(assert (str.in.re var0 (re.++ (re.* (re.+ (re.union (re.* (re.* (re.union (re.union (re.union (str.to.re "cc") (str.to.re "ddd")) (re.union (str.to.re "e") (str.to.re "fff"))) (re.+ (re.+ (str.to.re "gg")))))) (re.+ (re.union (re.+ (re.* (re.union (str.to.re "hhh") (str.to.re "ii")))) (re.* (re.* (re.union (str.to.re "j") (str.to.re "k"))))))))) (re.union (re.* (re.+ (re.+ (re.* (re.union (re.* (re.+ (str.to.re "000"))) (re.+ (re.+ (str.to.re "11")))))))) (re.+ (re.union (re.* (re.* (re.union (re.+ (re.+ (str.to.re "2"))) (re.* (re.+ (str.to.re "33")))))) (re.union (re.+ (re.+ (re.+ (re.union (str.to.re "44") (str.to.re "5"))))) (re.union (re.union (re.union (re.+ (str.to.re "6")) (re.+ (str.to.re "777"))) (re.union (re.+ (str.to.re "88")) (re.* (str.to.re "99")))) (re.* (re.+ (re.union (str.to.re "aaa") (str.to.re "bb"))))))))))))
(assert (<= 15 (str.len var0)))
(check-sat)